c description: Random 3-CNF over 16 variables and 32 clauses
p cnf 16 32
1 -10 -13 0
2 5 9 0
5 11 15 0
-2 5 10 0
4 -14 -16 0
-4 7 -13 0
2 3 -6 0
1 2 12 0
-1 -3 -16 0
6 9 -13 0
-1 6 8 0
-1 11 -16 0
-1 2 3 0
8 -10 -15 0
1 3 -7 0
-3 9 -13 0
1 6 -10 0
-4 9 -12 0
-8 -12 14 0
3 -5 11 0
-1 13 16 0
-3 12 15 0
-2 -8 9 0
-3 5 16 0
-4 -13 -15 0
-3 -8 9 0
9 -13 -16 0
4 9 16 0
3 5 -13 0
-1 -4 6 0
-7 -11 13 0
1 9 10 0